presolving:
   (0.2s) running MILP presolver
   (0.3s) MILP presolver found nothing
(round 1, exhaustive) 0 del vars, 0 del conss, 0 add conss, 0 chg bounds, 0 chg sides, 0 chg coeffs, 15600 upgd conss, 0 impls, 15600 clqs
   (0.6s) probing: 51/15025 (0.3%) - 0 fixings, 0 aggregations, 0 implications, 0 bound changes
   (0.6s) probing aborted: 50/50 successive totally useless probings
   (0.6s) symmetry computation started: requiring (bin +, int -, cont +), (fixed: bin -, int +, cont -)
   (0.6s) no symmetry present
presolving (2 rounds: 2 fast, 2 medium, 2 exhaustive):
 0 deleted vars, 0 deleted constraints, 0 added constraints, 0 tightened bounds, 0 added holes, 0 changed sides, 0 changed coefficients
 0 implications, 15600 cliques
presolved problem has 15025 variables (15025 bin, 0 int, 0 impl, 0 cont) and 15600 constraints
  15600 constraints of type <setppc>
transformed objective value is always integral (scale: 1)
Presolving Time: 0.57

 time | node  | left  |LP iter|LP it/n|mem/heur|mdpt |vars |cons |rows |cuts |sepa|confs|strbr|  dualbound   | primalbound  |  gap   | compl. 
p 0.8s|     1 |     0 |     0 |     - |  clique|   0 |  15k|  15k|  15k|   0 |  0 |   0 |   0 | 0.000000e+00 | 3.132100e+04 |    Inf | unknown
p 1.0s|     1 |     0 |     0 |     - | vbounds|   0 |  15k|  15k|  15k|   0 |  0 |   0 |   0 | 0.000000e+00 | 2.644800e+04 |    Inf | unknown
p 1.0s|     1 |     0 |     0 |     - | vbounds|   0 |  15k|  15k|  15k|   0 |  0 |   0 |   0 | 0.000000e+00 | 2.556500e+04 |    Inf | unknown
  3.0s|     1 |     0 |  6781 |     - |   147M |   0 |  15k|  15k|  15k|   0 |  0 |   1 |   0 | 1.973525e+04 | 2.556500e+04 |  29.54%| unknown
r 3.1s|     1 |     0 |  6781 |     - |rounding|   0 |  15k|  15k|  15k|   0 |  0 |   1 |   0 | 1.973525e+04 | 2.354500e+04 |  19.30%| unknown
  4.3s|     1 |     0 |  6805 |     - |   152M |   0 |  15k|  15k|  15k|   3 |  1 |   1 |   0 | 1.973662e+04 | 2.354500e+04 |  19.30%| unknown
  5.5s|     1 |     0 |  6834 |     - |   155M |   0 |  15k|  15k|  15k|   7 |  2 |   1 |   0 | 1.973850e+04 | 2.354500e+04 |  19.28%| unknown
  7.7s|     1 |     0 |  6909 |     - |   158M |   0 |  15k|  15k|  15k|  11 |  3 |   1 |   0 | 1.974183e+04 | 2.354500e+04 |  19.26%| unknown
  9.3s|     1 |     0 |  7158 |     - |   162M |   0 |  15k|  15k|  15k|  14 |  4 |   1 |   0 | 1.974547e+04 | 2.354500e+04 |  19.24%| unknown
 11.0s|     1 |     0 |  7304 |     - |   164M |   0 |  15k|  15k|  15k|  19 |  5 |   1 |   0 | 1.974911e+04 | 2.354500e+04 |  19.22%| unknown
 13.1s|     1 |     0 |  7348 |     - |   168M |   0 |  15k|  15k|  15k|  22 |  6 |   1 |   0 | 1.975000e+04 | 2.354500e+04 |  19.22%| unknown
 16.1s|     1 |     0 |  7466 |     - |   171M |   0 |  15k|  15k|  15k|  25 |  7 |   1 |   0 | 1.975195e+04 | 2.354500e+04 |  19.20%| unknown
 18.0s|     1 |     0 |  7642 |     - |   177M |   0 |  15k|  15k|  15k|  28 |  8 |   1 |   0 | 1.975406e+04 | 2.354500e+04 |  19.19%| unknown
 20.6s|     1 |     0 |  7675 |     - |   183M |   0 |  15k|  15k|  15k|  31 |  9 |   1 |   0 | 1.975585e+04 | 2.354500e+04 |  19.18%| unknown
 21.9s|     1 |     0 |  7744 |     - |   185M |   0 |  15k|  15k|  15k|  34 | 10 |   1 |   0 | 1.975721e+04 | 2.354500e+04 |  19.17%| unknown
 time | node  | left  |LP iter|LP it/n|mem/heur|mdpt |vars |cons |rows |cuts |sepa|confs|strbr|  dualbound   | primalbound  |  gap   | compl. 
 22.5s|     1 |     0 |  7829 |     - |   187M |   0 |  15k|  15k|  15k|  37 | 11 |   1 |   0 | 1.975871e+04 | 2.354500e+04 |  19.16%| unknown
 23.1s|     1 |     0 |  7992 |     - |   189M |   0 |  15k|  15k|  15k|  40 | 12 |   1 |   0 | 1.976061e+04 | 2.354500e+04 |  19.15%| unknown
 23.5s|     1 |     0 |  8080 |     - |   190M |   0 |  15k|  15k|  15k|  42 | 13 |   1 |   0 | 1.976151e+04 | 2.354500e+04 |  19.15%| unknown
 24.2s|     1 |     0 |  8090 |     - |   192M |   0 |  15k|  15k|  15k|  44 | 14 |   1 |   0 | 1.976153e+04 | 2.354500e+04 |  19.15%| unknown
 24.9s|     1 |     0 |  8136 |     - |   195M |   0 |  15k|  15k|  15k|  46 | 15 |   1 |   0 | 1.976220e+04 | 2.354500e+04 |  19.14%| unknown
 25.9s|     1 |     0 |  8184 |     - |   196M |   0 |  15k|  15k|  15k|  48 | 16 |   1 |   0 | 1.976286e+04 | 2.354500e+04 |  19.14%| unknown
 26.7s|     1 |     0 |  8268 |     - |   198M |   0 |  15k|  15k|  15k|  50 | 17 |   1 |   0 | 1.976411e+04 | 2.354500e+04 |  19.13%| unknown
 27.4s|     1 |     0 |  8336 |     - |   198M |   0 |  15k|  15k|  15k|  53 | 18 |   1 |   0 | 1.976458e+04 | 2.354500e+04 |  19.13%| unknown
 28.0s|     1 |     0 |  8394 |     - |   200M |   0 |  15k|  15k|  15k|  55 | 19 |   1 |   0 | 1.976627e+04 | 2.354500e+04 |  19.12%| unknown
d30.2s|     1 |     0 | 12392 |     - |farkasdi|   0 |  15k|  15k|  15k|   0 | 19 |   1 |   0 | 1.976627e+04 | 1.995400e+04 |   0.95%| unknown
 39.9s|     1 |     0 | 28017 |     - |   204M |   0 |  15k|  15k|  15k|  55 | 19 |  24 |   0 | 1.976627e+04 | 1.995400e+04 |   0.95%| unknown
 40.1s|     1 |     0 | 28017 |     - |   204M |   0 |  15k|  15k|  14k|  55 | 19 |  24 |   0 | 1.976627e+04 | 1.995400e+04 |   0.95%| unknown
 40.5s|     1 |     0 | 28068 |     - |   205M |   0 |  15k|  14k|  14k|  57 | 20 |  24 |   0 | 1.976668e+04 | 1.995400e+04 |   0.95%| unknown
 40.7s|     1 |     0 | 28104 |     - |   205M |   0 |  15k|  14k|  14k|  59 | 21 |  24 |   0 | 1.976720e+04 | 1.995400e+04 |   0.95%| unknown
(run 1, node 1) restarting after 1803 global fixings of integer variables

(restart) converted 57 cuts from the global cut pool into linear constraints

presolving:
(round 1, fast)       1803 del vars, 0 del conss, 0 add conss, 0 chg bounds, 0 chg sides, 3 chg coeffs, 0 upgd conss, 0 impls, 13800 clqs
(round 2, exhaustive) 1803 del vars, 0 del conss, 0 add conss, 0 chg bounds, 0 chg sides, 3 chg coeffs, 57 upgd conss, 0 impls, 13800 clqs
presolving (3 rounds: 3 fast, 2 medium, 2 exhaustive):
 1803 deleted vars, 0 deleted constraints, 0 added constraints, 0 tightened bounds, 0 added holes, 0 changed sides, 6 changed coefficients
 0 implications, 13800 cliques
presolved problem has 13222 variables (13222 bin, 0 int, 0 impl, 0 cont) and 13880 constraints
     57 constraints of type <knapsack>
  13800 constraints of type <setppc>
     23 constraints of type <logicor>
transformed objective value is always integral (scale: 1)
Presolving Time: 0.89
transformed 10/11 original solutions to the transformed problem space

 time | node  | left  |LP iter|LP it/n|mem/heur|mdpt |vars |cons |rows |cuts |sepa|confs|strbr|  dualbound   | primalbound  |  gap   | compl. 
 45.9s|     1 |     0 | 38601 |     - |   209M |   0 |  13k|  13k|  13k|   0 |  0 |  24 |   0 | 1.976720e+04 | 1.995400e+04 |   0.95%| unknown
 47.6s|     1 |     0 | 38606 |     - |   212M |   0 |  13k|  13k|  13k|   2 |  1 |  24 |   0 | 1.976720e+04 | 1.995400e+04 |   0.95%| unknown
 49.3s|     1 |     0 | 38712 |     - |   213M |   0 |  13k|  13k|  13k|   5 |  2 |  24 |   0 | 1.976826e+04 | 1.995400e+04 |   0.94%| unknown
 52.2s|     1 |     0 | 38741 |     - |   217M |   0 |  13k|  13k|  13k|   7 |  3 |  24 |   0 | 1.976925e+04 | 1.995400e+04 |   0.93%| unknown
 56.2s|     1 |     0 | 38771 |     - |   225M |   0 |  13k|  13k|  13k|   9 |  4 |  24 |   0 | 1.976939e+04 | 1.995400e+04 |   0.93%| unknown
 59.4s|     1 |     0 | 38855 |     - |   231M |   0 |  13k|  13k|  13k|  12 |  5 |  24 |   0 | 1.977073e+04 | 1.995400e+04 |   0.93%| unknown
 60.9s|     1 |     0 | 38980 |     - |   232M |   0 |  13k|  13k|  13k|  17 |  6 |  24 |   0 | 1.977226e+04 | 1.995400e+04 |   0.92%| unknown
 62.5s|     1 |     0 | 39064 |     - |   234M |   0 |  13k|  13k|  13k|  21 |  7 |  24 |   0 | 1.977333e+04 | 1.995400e+04 |   0.91%| unknown
 64.2s|     1 |     0 | 39110 |     - |   235M |   0 |  13k|  13k|  13k|  24 |  8 |  24 |   0 | 1.977388e+04 | 1.995400e+04 |   0.91%| unknown
 66.3s|     1 |     0 | 39231 |     - |   239M |   0 |  13k|  13k|  13k|  27 |  9 |  24 |   0 | 1.977564e+04 | 1.995400e+04 |   0.90%| unknown
 67.7s|     1 |     0 | 39380 |     - |   240M |   0 |  13k|  13k|  13k|  30 | 10 |  24 |   0 | 1.977626e+04 | 1.995400e+04 |   0.90%| unknown
 68.1s|     1 |     0 | 39506 |     - |   242M |   0 |  13k|  13k|  13k|  32 | 11 |  24 |   0 | 1.977674e+04 | 1.995400e+04 |   0.90%| unknown
 88.5s|     1 |     2 | 50285 |     - |   242M |   0 |  13k|  13k|  13k|  32 | 11 |  43 |  22 | 1.979925e+04 | 1.995400e+04 |   0.78%| unknown

SCIP Status        : problem is solved [optimal solution found]
Solving Time (sec) : 114.55
Solving Nodes      : 7 (total of 8 nodes in 2 runs)
Primal Bound       : +1.99540000000000e+04 (12 solutions)
Dual Bound         : +1.99540000000000e+04
Gap                : 0.00 %
Solve Status: optimal
Solve Time: 114.57 seconds
